NAME : N60ft405.dat.12125.tour
COMMENT : Length = 12125
COMMENT : Found by LKH [Keld Helsgaun] Sat Nov 11 16:42:01 2017
TYPE : TOUR
DIMENSION : 60
TOUR_SECTION
1
4
55
59
47
36
60
10
13
30
35
28
33
2
40
26
18
25
12
14
38
56
46
45
23
17
22
43
29
48
3
19
7
41
54
42
15
51
5
44
34
58
57
37
31
27
32
8
20
39
24
9
53
49
11
16
50
6
52
21
-1
EOF
